submitit INFO (2023-04-30 19:21:49,217) - Starting with JobEnvironment(job_id=27538, hostname=cpunode6, local_rank=0(5), node=0(1), global_rank=0(5))
submitit INFO (2023-04-30 19:21:49,217) - Loading pickle: /h/30/pashootan/Matrix-Mult-CP/src/../logs/2x2x2_6_Apr30_19:21:47/27538_submitted.pkl
 ! --------------------------------------------------- CP Optimizer 22.1.1.0 --
 ! Satisfiability problem - 72 variables, 64 constraints
 ! TimeLimit            = 7200
 ! Workers              = 8
 ! LogPeriod            = 10000000
 ! RandomSeed           = 2773
 ! Initial process time : 0.00s (0.00s extraction + 0.00s propagation)
 !  . Log search space  : 114.1 (before), 114.1 (after)
 !  . Memory usage      : 431.0 kB (before), 431.0 kB (after)
 ! Using parallel search with 8 workers.
 ! ----------------------------------------------------------------------------
 !               Branches  Non-fixed    W       Branch decision
                   10000k          7    3        -1 != W3_1
                   10000k          6    8        -1  = V2_2
                   10000k          4    2        -1 != U0_3
                   10000k          7    7        -1 != V3_0
                   10000k          4    4         0  = V4_3
                   10000k          4    6   F     0 != U0_0
                   10000k          4    5   F     1 != U2_2
                   10000k          4    1        -1 != W2_1
                   20000k          7    8        -1 != U3_2
                   20000k          4    7   F     0 != V2_1
                   20000k          7    3         0 != U2_1
                   20000k          4    2        -1  = V0_1
                   20000k          4    4        -1 != V0_3
                   20000k          4    6   F    -1  = U3_2
                   20000k          4    5   F    -1 != W4_2
                   20000k          4    1   F     1 != U2_0
                   30000k          7    7   F    -1 != V3_2
                   30000k          6    8   F        -
                   30000k          8    3   F     0  = V3_1
                   30000k          4    6         0 != U1_0
 ! Time = 291.69s, Average fail depth = 15, Memory usage = 197.5 MB
 !               Branches  Non-fixed    W       Branch decision
                   30000k          4    4   F    -1  = W5_2
                   30000k          5    2         0  = W3_3
                   30000k          5    5   F     0  = W3_1
                   30000k          4    1         0  = U1_3
                   40000k          8    7        -1  = V5_3
                   40000k          9    3        -1  = U2_3
                   40000k          7    8         1  = U3_3
                   40000k          4    6   F     0  = U4_3
                   40000k          4    4        -1  = V0_1
                   40000k          4    2   F     1  = V3_0
                   40000k          4    1         0 != V1_0
                   40000k          5    5         1 != U1_3
                   50000k          8    3   F     0 != W2_1
                   50000k          5    7         0 != V3_2
                   50000k          7    8   F    -1 != W4_3
                   50000k          4    6   F     1  = U1_1
                   50000k          5    5   F    -1  = V3_1
                   50000k          4    2         1  = U4_2
                   50000k          4    4   F    -1  = V1_2
                   50000k          4    1   F    -1  = W4_0
 ! Time = 493.54s, Average fail depth = 15, Memory usage = 324.0 MB
 !               Branches  Non-fixed    W       Branch decision
                   60000k         10    3   F     1  = V1_2
                   60000k          7    7   F     0 != W0_2
                   60000k          7    8   F    -1  = V3_1
                   60000k          4    1   F    -1 != W0_1
                   60000k          5    2        -1  = W0_2
                   60000k          4    5         0 != W0_0
                   60000k          4    4        -1 != U3_2
                   60000k          6    6        -1 != U0_2
                   70000k          6    3   F     1 != U2_1
                   70000k          7    7        -1  = V4_3
                   70000k          7    8   F     0 != W4_1
                   70000k          4    1   F     0  = W3_3
                   70000k          5    5         0 != U2_1
                   70000k          7    2   F    -1  = U2_2
                   70000k          5    4   F    -1  = W3_2
                   70000k          7    6         0 != U5_3
                   80000k          7    3        -1  = U0_3
                   80000k          7    8   F     0  = W4_3
                   80000k          7    7   F     0 != V3_1
                   80000k          4    1   F     1 != W4_1
 ! Time = 786.75s, Average fail depth = 15, Memory usage = 437.1 MB
 !               Branches  Non-fixed    W       Branch decision
                   80000k          4    5   F     0  = U0_2
                   80000k          7    2         0 != V5_3
                   80000k          5    6   F     1 != U4_2
                   80000k          6    4         0  = U1_1
                   90000k          8    3        -1  = V2_3
                   90000k          7    8   F    -1  = U4_1
                   90000k          7    7   F    -1 != W2_1
                   90000k          4    1   F     0 != U1_3
                   90000k          5    5         1 != U5_3
                   90000k          4    2         0 != U0_0
                   90000k          4    6         1  = U3_0
                   90000k          8    4        -1 != U3_1
                     100M         11    3   F     0 != U0_3
                     100M          7    8   F    -1 != V5_2
                     100M          9    7   F     1 != W4_3
                     100M          4    1   F     1  = V2_2
                     100M          5    5   F    -1  = U1_0
                     100M          5    6   F    -1  = V4_1
                     100M          4    2   F     1 != V3_0
                     100M          6    4   F     0  = W5_2
 ! Time = 1015.30s, Average fail depth = 15, Memory usage = 532.0 MB
 !               Branches  Non-fixed    W       Branch decision
                     110M          9    3        -1 != W5_2
                     110M          6    8        -1 != W5_1
                     110M          7    7   F     0  = U1_0
                     110M          4    1         0  = U1_0
                     110M          5    6   F    -1  = V4_1
                     110M          5    5        -1  = W4_1
                     110M          6    2   F     1  = U4_2
                     110M          5    4        -1  = W1_3
                     120M         10    3         0 != W3_3
                     120M          6    8         0  = U1_2
                     120M          6    7   F     0  = V2_1
                     120M          4    1         0 != W3_1
                     120M          6    6   F    -1  = W3_1
                     120M          5    5        -1  = U4_2
                     120M          5    2         0 != W2_3
                     120M          6    4         0  = U2_3
                     130M          7    3   F     1  = V0_1
                     130M          7    8            -
                     130M          6    7         1  = U5_2
                     130M          4    6   F     0  = V1_0
 ! Time = 1291.36s, Average fail depth = 15, Memory usage = 667.2 MB
 !               Branches  Non-fixed    W       Branch decision
                     130M          6    2   F    -1  = W4_3
                     130M          4    1        -1 != V5_1
                     130M          5    5   F     1 != U1_3
                     130M          5    4   F     0  = W3_2
                     140M          6    3   F     0  = U1_0
                     140M          7    8        -1  = V1_3
                     140M          5    6         0 != V1_0
                     140M          4    2         1  = V2_1
                     140M          6    7        -1 != V1_1
                     140M          6    5   F     0  = V0_0
                     140M          6    4        -1 != U5_3
                     140M          4    1        -1  = V0_1
                     150M          7    3        -1 != W3_0
                     150M          7    8         1  = U1_1
                     150M          6    7         1  = V0_1
                     150M          5    2         0  = W2_0
                     150M          5    6   F     1  = V5_3
                     150M          4    5   F    -1 != U0_3
                     150M          5    4   F     1 != W3_0
                     150M          6    1   F     0 != U1_1
 ! Time = 1517.39s, Average fail depth = 15, Memory usage = 748.0 MB
 !               Branches  Non-fixed    W       Branch decision
                     160M          9    3   F    -1  = W1_1
                     160M          7    8   F     1  = V5_2
                     160M          7    7        -1 != W3_0
                     160M          5    6        -1 != U2_2
                     160M          5    2         0  = W3_3
                     160M         10    5   F     0 != U3_2
                     160M          6    4         0 != W4_2
                     160M          6    1   F     1  = V3_3
                     170M          8    3        -1  = V2_1
                     170M          7    8   F     0 != V3_1
                     170M          6    7        -1 != U4_0
                     170M          5    6   F     1 != W0_2
                     170M          6    2   F     0  = U4_2
                     170M          6    4         1  = U0_3
                     170M          9    5         1  = U5_0
                     170M          4    1         0 != V5_1
                     180M          7    3   F     1  = V4_0
                     180M          7    8   F    -1  = W1_0
                     180M          5    2   F     1  = W4_1
                     180M          8    7         0 != V2_3
 ! Time = 1785.09s, Average fail depth = 15, Memory usage = 821.2 MB
 !               Branches  Non-fixed    W       Branch decision
                     180M          5    6         0 != U3_2
                     180M          6    4   F     0  = W3_3
                     180M          9    5         1  = U2_0
                     180M          4    1        -1 != U1_0
                     190M          6    8        -1 != V4_0
                     190M          6    3   F    -1  = W0_3
                     190M          5    6   F     0  = W1_0
                     190M          6    2         1  = U3_2
                     190M          6    7   F    -1  = U2_0
                     190M          6    4        -1  = U0_1
                     190M          4    1   F     0  = W2_0
                     190M          7    5         0 != W4_1
                     200M          7    8   F        -
                     200M          7    3   F    -1 != V2_3
                     200M          4    6   F    -1 != V3_0
                     200M          5    2        -1  = V4_3
                     200M          6    7         1 != U1_1
                     200M          5    4         0 != V0_3
                     200M          4    1        -1  = U5_0
                     200M          9    5   F     1 != U4_3
 ! Time = 2040.20s, Average fail depth = 16, Memory usage = 907.6 MB
 !               Branches  Non-fixed    W       Branch decision
                     210M          7    8         0 != W1_3
                     210M          5    6   F    -1 != U3_0
                     210M          8    3         0  = U4_3
                     210M          6    2         0 != V4_0
                     210M          5    7         1  = V5_1
                     210M          5    4   F    -1 != U2_2
                     210M          4    1        -1 != W2_0
                     210M          5    5         1  = W4_2
                     220M          7    8            -
                     220M          5    6   F     0 != V3_0
                     220M          5    2   F     1 != U3_0
                     220M         10    7   F     1  = U1_3
                     220M          6    3         0 != V2_1
                     220M          6    4   F     0  = V4_2
                     220M          4    1         0 != V3_1
                     220M          6    5   F     1 != U3_2
                     230M          6    8         0 != V5_2
                     230M          9    7   F     0 != V0_1
                     230M          4    6         1 != U4_3
                     230M          5    2   F     0  = U5_2
 ! Time = 2281.00s, Average fail depth = 16, Memory usage = 998.9 MB
 !               Branches  Non-fixed    W       Branch decision
                     230M          7    3   F    -1  = W4_2
                     230M          5    4   F     1 != W3_3
                     230M          4    1   F     1 != U2_1
                     230M          5    5   F     0  = W1_0
                     240M          6    8   F    -1  = V3_1
                     240M          6    7         0 != U2_1
                     240M         12    3         1 != U3_3
                     240M          4    6         0 != V1_1
                     240M          6    2   F     0 != U3_0
                     240M          6    4   F    -1  = U2_2
                     240M          5    1         1 != U5_0
                     240M          6    5   F     1 != U4_2
                     250M          6    8   F    -1 != V1_3
                     250M         11    7   F     0 != U1_0
                     250M          5    6   F    -1  = U2_1
                     250M          8    3        -1 != U1_2
                     250M          6    2         1 != V2_1
                     250M          4    4        -1  = W0_3
                     250M          4    1   F     0 != W5_3
                     250M          4    5        -1  = V0_1
 ! Time = 2534.31s, Average fail depth = 16, Memory usage = 1.1 GB
 !               Branches  Non-fixed    W       Branch decision
                     260M          6    8        -1 != U2_3
                     260M         11    7   F     1  = U2_2
                     260M          5    6         0 != V1_0
                     260M          9    3        -1  = W4_1
                     260M          6    2   F     0 != V1_3
                     260M          5    4   F     0 != W0_1
                     260M          4    1   F     0  = U3_0
                     260M          6    5   F    -1 != U3_1
                     270M          6    8   F    -1  = U4_3
                     270M          6    6         1  = V5_3
                     270M          6    7   F     1  = W3_3
                     270M          7    3         0 != U0_1
                     270M          5    4   F     0  = V5_3
                     270M          6    2         0 != U1_1
                     270M          4    1   F     1  = W4_3
                     270M          5    5        -1  = U3_1
                     280M          6    8   F     1  = V1_2
                     280M          5    6   F    -1  = U4_0
                     280M          7    3   F     0  = U1_3
                     280M         10    7        -1 != V2_3
 ! Time = 2779.69s, Average fail depth = 16, Memory usage = 1.2 GB
 !               Branches  Non-fixed    W       Branch decision
                     280M          5    4         0 != U2_3
                     280M          5    2   F    -1  = W5_1
                     280M          5    1   F     0  = V4_0
                     280M          5    5         1 != W4_0
                     290M          6    8   F    -1 != U2_1
                     290M          4    6   F    -1 != V2_0
                     290M          9    7        -1  = U1_3
                     290M          7    3   F    -1  = U3_2
                     290M          5    2         1  = V3_2
                     290M          6    4        -1  = W0_2
                     290M          4    1   F     0  = V0_1
                     290M          5    5   F     1  = W1_1
                     300M          6    8        -1 != V0_2
                     300M          6    6         0 != W1_1
                     300M         12    7   F     0 != U3_0
                     300M          8    3        -1  = W2_2
                     300M          5    2   F     0  = V1_1
                     300M          5    4   F     0  = V5_1
                     300M          4    1   F    -1 != V5_0
                     300M          5    5         0  = W1_1
 ! Time = 3041.83s, Average fail depth = 16, Memory usage = 1.3 GB
 !               Branches  Non-fixed    W       Branch decision
                     310M          7    8   F    -1  = W3_2
                     310M          5    6   F     0  = U1_2
                     310M          7    3         1  = W1_3
                     310M          9    7         0 != W3_3
                     310M          5    2         1  = U3_3
                     310M          5    1   F    -1  = V4_1
                     310M          6    4   F    -1  = W0_0
                     310M          5    5         1 != V4_0
                     320M          6    8         1 != V3_2
                     320M          5    6   F    -1  = W3_3
                     320M         10    7         1 != W2_0
                     320M          5    2        -1  = V0_2
                     320M          7    3         1  = U4_3
                     320M          5    4   F     0 != U1_1
                     320M          5    1   F     1 != V3_0
                     320M          6    5   F     0 != U5_3
                     330M          5    8   F     0 != W4_1
                     330M          5    6   F    -1 != W3_0
                     330M          7    7        -1 != U0_1
                     330M          6    2        -1  = V5_0
 ! Time = 3304.77s, Average fail depth = 16, Memory usage = 1.4 GB
 !               Branches  Non-fixed    W       Branch decision
                     330M          6    4   F     0  = W3_0
                     330M          8    3   F    -1 != V2_2
                     330M          4    1        -1  = W3_0
                     330M          4    5         0 != W5_1
                     340M          6    8        -1  = U5_2
                     340M          5    6   F     0  = W1_0
                     340M         12    7   F     1  = U4_2
                     340M          5    2   F     1  = U2_2
                     340M          7    3         0 != W3_2
                     340M          5    4   F     0 != W1_3
                     340M          4    1   F     0  = V4_1
                     340M          5    5         0 != W2_1
                     350M          6    8            -
                     350M         14    7   F    -1  = U1_3
                     350M          5    6   F     1 != W1_3
                     350M          6    3         1 != W2_2
                     350M          6    4   F     0  = W0_2
                     350M          6    2         0 != U3_2
                     350M          4    1   F    -1  = U2_0
                     350M          4    5   F    -1 != U1_2
 ! Time = 3541.20s, Average fail depth = 16, Memory usage = 1.5 GB
 !               Branches  Non-fixed    W       Branch decision
                     360M          6    8   F    -1  = V3_1
                     360M          8    7        -1  = V1_2
                     360M          5    6         1 != V5_3
                     360M          6    4   F    -1  = W2_3
                     360M          8    3   F    -1  = U4_3
                     360M          4    2         0 != W2_3
                     360M          4    1         0 != W3_2
                     360M          5    5   F     0  = U1_2
                     370M          6    8         0  = W2_3
                     370M          9    7         0 != U1_0
                     370M          5    6   F     0  = V2_0
                     370M          5    4   F     0 != U3_0
                     370M          6    3         1 != U0_0
                     370M          5    2   F     1 != W1_0
                     370M          5    1   F     0  = W5_1
                     370M          6    5        -1 != U5_0
                     380M          6    8         0 != V2_3
                     380M          8    7   F     0  = V5_2
                     380M          5    6   F     1 != V0_1
                     380M          5    4   F    -1 != U1_1
 ! Time = 3792.64s, Average fail depth = 16, Memory usage = 1.7 GB
 !               Branches  Non-fixed    W       Branch decision
                     380M          5    2         1 != V3_1
                     380M          6    3   F    -1  = V1_1
                     380M          5    1         1  = U2_2
                     380M          5    5   F     0 != W2_3
                     390M          7    8         1 != W3_1
                     390M         11    7         1 != U4_0
                     390M          5    6         1 != W4_0
                     390M          4    2   F    -1 != V5_3
                     390M          7    3         1 != U2_3
                     390M          6    4   F     1 != W0_2
                     390M          4    1         1  = V0_0
                     390M          5    5   F     0  = U4_1
                     400M          8    7         0 != U3_3
                     400M          6    8            -
                     400M          4    6   F     0  = V0_0
                     400M          7    3   F     0 != U4_3
                     400M          6    2         1  = U4_2
                     400M          6    4         0  = U5_2
                     400M          5    1   F     1 != W0_0
                     400M          5    5         1  = W0_2
 ! Time = 4038.01s, Average fail depth = 16, Memory usage = 1.8 GB
 !               Branches  Non-fixed    W       Branch decision
                     410M          7    7   F     1 != U2_3
                     410M          6    8   F    -1 != W1_0
                     410M          5    6   F     1  = W3_0
                     410M          7    3         1  = V1_3
                     410M          5    2        -1  = U2_2
                     410M          5    4        -1  = V1_2
                     410M          4    1         0 != W0_3
                     410M          6    5   F     1  = U1_2
                     420M         10    7   F     0 != V1_2
                     420M          6    8   F     1 != W4_0
                     420M          4    6   F     0  = U1_0
                     420M          6    3         0 != V3_0
                     420M          5    4        -1  = U3_1
                     420M          5    1         0 != W3_0
                     420M          5    2        -1 != V2_1
                     420M          4    5         0  = V2_2
                     430M          9    7        -1 != U3_0
                     430M          6    8   F    -1  = V1_3
                     430M          6    6   F    -1 != W3_0
                     430M          6    3   F    -1  = V3_2
 ! Time = 4297.75s, Average fail depth = 16, Memory usage = 1.9 GB
 !               Branches  Non-fixed    W       Branch decision
                     430M          5    4   F     1  = V3_0
                     430M          4    1   F    -1 != W0_0
                     430M          5    2   F     0  = V4_1
                     430M          5    5   F    -1 != W3_1
                     440M          9    7        -1 != W3_2
                     440M          6    8   F    -1  = U2_1
                     440M          7    6         1 != U2_0
                     440M          5    4         0  = U1_2
                     440M          7    3         1  = W1_1
                     440M          5    1         1 != U3_2
                     440M          5    2   F    -1 != V1_3
                     440M          6    5   F    -1  = U0_1
                     450M          7    7   F     1  = V1_1
                     450M          4    8        -1  = U5_3
                     450M          5    6        -1  = V4_3
                     450M          5    4   F     1 != V4_1
                     450M          7    3        -1  = U4_1
                     450M          5    1        -1  = W1_0
                     450M          6    2   F    -1  = U1_2
                     450M          4    5   F     1  = W2_3
 ! Time = 4531.69s, Average fail depth = 16, Memory usage = 2.0 GB
 !               Branches  Non-fixed    W       Branch decision
                     460M          7    7   F     0 != W1_3
                     460M          5    8   F    -1  = W2_1
                     460M          5    6   F    -1  = U2_2
                     460M          8    3         1 != V2_3
                     460M          5    4   F     1  = V1_3
                     460M          4    1        -1 != U3_0
                     460M          5    2         1  = U0_1
                     460M          5    5         1 != V1_0
                     470M          8    7   F     0  = V1_2
                     470M          5    8        -1  = U1_3
                     470M          6    6   F    -1 != W2_3
                     470M          5    4   F     1 != W0_2
                     470M          6    3   F     0  = W1_0
                     470M          4    1   F    -1  = U0_0
                     470M          5    2   F    -1 != W0_3
                     470M          5    5        -1  = W1_2
                     480M         12    7   F    -1  = V1_1
                     480M          5    8            -
                     480M          5    6         0 != W0_3
                     480M          5    4         1  = W1_3
 ! Time = 4792.59s, Average fail depth = 16, Memory usage = 2.1 GB
 !               Branches  Non-fixed    W       Branch decision
                     480M          4    1         0  = U2_1
                     480M          6    3   F     1  = V5_2
                     480M          5    2   F    -1 != U5_0
                     480M          5    5         1 != U0_2
                     490M          7    7         1 != U2_3
                     490M          4    8         0 != W3_3
                     490M          5    6        -1 != V5_3
                     490M          5    4         0 != W5_2
                     490M          4    1   F    -1 != W5_0
                     490M          7    3         0  = V5_1
                     490M          6    2         0  = V1_0
                     490M          5    5        -1 != V2_1
                     500M          7    7   F    -1  = W0_0
                     500M          5    8         0  = U1_0
                     500M          5    6   F    -1 != U2_0
                     500M          6    4   F    -1 != U0_0
                     500M          4    1         0 != U3_0
                     500M          6    3   F     0 != V3_1
                     500M          5    2        -1 != W4_2
                     500M          6    5   F    -1 != V1_3
 ! Time = 5030.23s, Average fail depth = 16, Memory usage = 2.2 GB
 !               Branches  Non-fixed    W       Branch decision
                     510M         12    7         0  = V4_3
                     510M          5    8         0 != U5_0
                     510M          6    6         0  = W3_2
                     510M          6    4         1 != V2_0
                     510M          4    1         0  = W3_1
                     510M         10    3         1 != U1_3
                     510M          6    2   F    -1 != V0_1
                     520M         12    7        -1 != W2_0
                     510M          4    5   F    -1 != W0_3
                     520M          5    8   F    -1  = V5_2
                     520M          5    6   F     0 != V5_3
                     520M          5    4   F     0 != U5_3
                     520M         11    3        -1 != U3_1
                     520M          4    1         1 != V3_3
                     520M          5    2   F     1 != U1_0
                     530M          5    8   F        -
                     520M          5    5   F     1  = V0_1
                     530M          4    6         0 != V0_3
                     530M          8    7         1  = V2_2
                     530M          6    4   F    -1  = U2_0
 ! Time = 5286.15s, Average fail depth = 16, Memory usage = 2.3 GB
 !               Branches  Non-fixed    W       Branch decision
                     530M          6    3   F     1 != W3_1
                     530M          4    1         0  = W3_0
                     530M          5    2   F     1  = U1_2
                     540M          5    8   F     0 != V5_3
                     530M          5    5        -1  = U4_2
                     540M          5    6         1 != W4_3
                     540M          8    7   F    -1  = U1_3
                     540M          6    4   F     0 != W0_1
                     540M          7    3         1  = V5_3
                     540M          4    1   F     1 != V4_1
                     540M          5    2   F    -1  = V1_3
                     540M          6    5        -1 != V5_0
                     550M          5    8            -
                     550M          5    6   F     1 != U4_0
                     550M          5    4         1  = V2_1
                     550M         11    7         0 != V1_1
                     550M          8    3   F     0 != W2_2
                     550M          5    2        -1  = V3_2
                     550M          4    1   F    -1 != V2_1
                     550M          5    5         0 != V2_1
 ! Time = 5540.81s, Average fail depth = 16, Memory usage = 2.4 GB
 !               Branches  Non-fixed    W       Branch decision
                     560M          5    8   F    -1  = W3_0
                     560M          4    6        -1  = U2_0
                     560M          6    4   F     0  = V0_3
                     560M          9    7         0  = U5_0
                     560M          6    3   F     0 != U2_1
                     560M          6    2   F     1 != U3_1
                     560M          4    1         1  = V5_1
                     560M          5    5   F    -1  = W2_0
                     570M          5    8   F     1  = U1_0
                     570M          6    6         0 != V4_3
                     570M          5    4         1  = W0_0
                     570M          7    7   F    -1  = U4_3
                     570M          9    3        -1  = V0_2
                     570M          5    2   F    -1  = V0_1
                     570M          4    1         1  = U2_1
                     580M          5    8        -1  = W3_2
                     570M          7    5   F     1 != U1_3
                     580M          5    6   F     0  = U2_1
                     580M          6    4   F     1 != V1_1
                     580M         12    7   F     1  = W3_2
 ! Time = 5784.72s, Average fail depth = 16, Memory usage = 2.5 GB
 !               Branches  Non-fixed    W       Branch decision
                     580M          7    3   F     1  = V1_1
                     580M          5    2         1  = W2_1
                     580M          5    1         0 != W1_3
                     590M          5    8        -1 != W1_2
                     580M          5    5        -1 != W5_1
                     590M          8    6   F     0  = U0_2
                     590M         10    7   F     1  = U4_3
                     590M          5    4         1 != W3_3
                     590M          6    3        -1 != W3_1
                     590M          5    2   F     0  = V4_1
                     590M          4    1   F     1  = V1_0
                     600M          5    8   F    -1 != V4_1
                     590M          5    5         0  = U2_1
                     600M          5    6   F    -1 != W2_0
                     600M          8    7   F    -1 != V5_0
                     600M          6    4         1 != U1_3
                     600M         11    3   F     1 != W4_1
                     600M          5    2        -1  = V0_1
                     600M          4    1         1  = U2_3
                     600M          6    5   F     0 != V1_2
 ! Time = 6048.95s, Average fail depth = 16, Memory usage = 2.6 GB
 !               Branches  Non-fixed    W       Branch decision
                     610M          4    8         1  = U5_1
                     610M          5    6        -1  = U0_0
                     610M          5    4   F     0  = V5_0
                     610M          8    7        -1  = W0_2
                     610M         11    3   F    -1  = U5_0
                     610M          4    1         1  = U0_1
                     610M          6    2         1  = V5_1
                     610M          5    5   F     1  = V5_1
                     620M          5    8        -1  = U1_1
                     620M          5    6         1  = W0_0
                     620M          9    7        -1 != U4_3
                     620M         12    3         0 != V3_0
                     620M         12    4         0 != V5_3
                     620M          4    1         0 != U4_1
                     620M          5    2   F    -1  = W4_1
                     630M          5    8   F     0  = V1_3
                     620M          6    5         0 != V4_0
                     630M          4    6   F     1  = V2_3
                     630M         12    7   F    -1  = V2_2
                     630M         12    3   F     0  = V2_3
 ! Time = 6280.63s, Average fail depth = 16, Memory usage = 2.7 GB
 !               Branches  Non-fixed    W       Branch decision
                     630M          6    4        -1 != V5_3
                     630M          4    1   F     1 != W1_0
                     630M          7    2        -1 != W5_3
                     640M          5    8   F     0  = U5_0
                     630M          4    5   F     0  = V2_3
                     640M          5    6   F    -1  = U4_2
                     640M         15    7   F    -1  = V2_2
                     640M         10    3         1 != V1_3
                     640M          5    4         1  = W3_2
                     640M          4    1   F     1  = V4_3
                     640M          5    2   F    -1 != V2_0
                     650M          4    8   F     1 != W3_0
                     640M          6    5   F    -1  = W0_3
                     650M          6    7   F     1  = W2_0
                     650M          5    6   F     0  = U0_2
                     650M          9    3         0 != U5_0
                     650M          5    4         0 != U3_2
                     650M          4    1   F     1 != W2_1
                     650M          4    2         1  = V4_1
                     660M          5    8         0 != W3_3
 ! Time = 6534.55s, Average fail depth = 16, Memory usage = 2.8 GB
 !               Branches  Non-fixed    W       Branch decision
                     650M          4    5         0 != U2_1
                     660M          4    6   F    -1 != U1_1
                     660M          7    7   F    -1 != U0_0
                     660M         12    3         0 != V0_1
                     660M          4    4   F    -1  = W0_1
                     660M          4    1         0  = W0_3
                     660M          6    2   F     0  = U4_0
                     670M          5    8   F     0  = W2_1
                     660M          5    5         0 != W4_1
                     670M         12    7        -1 != U5_3
                     670M          5    6   F     1 != V0_0
                     670M         10    3         1 != W4_1
                     670M          6    4        -1 != U2_0
                     670M          4    1         0 != V0_3
                     670M          6    2   F    -1 != V5_1
                     680M          5    8   F     1 != U3_1
                     680M         12    7   F     1  = U0_1
                     670M          5    5   F     1 != U0_0
                     680M          9    6         0 != V3_3
                     680M          8    3         0  = V1_3
 ! Time = 6772.74s, Average fail depth = 16, Memory usage = 2.9 GB
 !               Branches  Non-fixed    W       Branch decision
                     680M          4    4   F     0  = V4_1
                     680M          5    1         1 != W3_1
                     680M          5    2   F     0  = W0_2
                     690M          6    8   F     0 != V2_0
                     690M          6    7         1 != W4_1
                     690M          6    6         0 != V4_1
                     680M          5    5   F    -1 != U5_2
                     690M          6    3        -1 != V4_2
                     690M          8    4         0 != W5_2
                     690M          4    1         1  = U2_1
                     690M          5    2         1 != V2_1
                     700M          5    8        -1  = W0_3
                     700M          5    6        -1 != V2_0
                     690M          6    5         0 != W4_3
                     700M          9    7   F     1  = W0_2
                     700M         12    3   F     0 != U0_0
                     700M          5    4   F    -1  = W5_2
                     700M          5    1   F    -1 != V5_3
                     700M          5    2         0 != V3_1
                     710M          5    8         1  = W1_0
 ! Time = 7037.35s, Average fail depth = 16, Memory usage = 3.0 GB
 !               Branches  Non-fixed    W       Branch decision
                     710M          7    6         1 != V0_3
                     710M         12    3         1  = U5_0
                     700M          6    5        -1 != U4_1
                     710M          7    7   F    -1 != W1_3
                     710M          5    4   F    -1  = U2_2
                     710M          4    1         1 != U2_3
                     710M          5    2         0  = U3_2
                     720M          5    8            -
                     720M          6    6   F     0  = U3_2
                     720M         13    7         0 != U3_0
submitit WARNING (2023-04-30 21:21:12,361) - Bypassing signal SIGCONT
submitit INFO (2023-04-30 21:21:12,380) - Job has timed out. Ran 119 minutes out of requested 121 minutes.
submitit WARNING (2023-04-30 21:21:12,380) - Caught signal SIGUSR2 on cpunode6: this job is timed-out.
submitit INFO (2023-04-30 21:21:12,380) - Job not requeued because: timed-out and not checkpointable.
submitit ERROR (2023-04-30 21:21:12,414) - Submitted job triggered an exception
